#Non-bonded interactions (pair-wise)
#pair_coeff atomType1 atomType2 eps(kcal/mol) sigma (ang)
pair_coeff 1 1 0.170000 3.250000
pair_coeff 1 2 0.133604 3.491060
pair_coeff 1 3 0.109087 3.396690
pair_coeff 1 4 0.109087 3.396690
pair_coeff 1 5 0.109087 3.396690
pair_coeff 1 6 0.109087 3.396690
pair_coeff 1 7 0.109087 3.396690
pair_coeff 1 8 0.109087 3.396690
pair_coeff 1 9 0.188944 3.101612
pair_coeff 1 10 0.105925 3.372684
pair_coeff 1 11 0.071414 2.804461
pair_coeff 1 12 0.071414 2.804461
pair_coeff 1 13 0.105925 3.372684
pair_coeff 1 14 0.105925 3.372684
pair_coeff 1 15 0.071414 2.850439
pair_coeff 2 2 0.105000 3.750000
pair_coeff 2 3 0.085732 3.648630
pair_coeff 2 4 0.085732 3.648630
pair_coeff 2 5 0.085732 3.648630
pair_coeff 2 6 0.085732 3.648630
pair_coeff 2 7 0.085732 3.648630
pair_coeff 2 8 0.085732 3.648630
pair_coeff 2 9 0.148492 3.331666
pair_coeff 2 10 0.083247 3.622844
pair_coeff 2 11 0.056125 3.012474
pair_coeff 2 12 0.056125 3.012474
pair_coeff 2 13 0.083247 3.622844
pair_coeff 2 14 0.083247 3.622844
pair_coeff 2 15 0.056125 3.061862
pair_coeff 3 3 0.070000 3.550000
pair_coeff 3 4 0.070000 3.550000
pair_coeff 3 5 0.070000 3.550000
pair_coeff 3 6 0.070000 3.550000
pair_coeff 3 7 0.070000 3.550000
pair_coeff 3 8 0.070000 3.550000
pair_coeff 3 9 0.121244 3.241605
pair_coeff 3 10 0.067971 3.524911
pair_coeff 3 11 0.045826 2.931041
pair_coeff 3 12 0.045826 2.931041
pair_coeff 3 13 0.067971 3.524911
pair_coeff 3 14 0.067971 3.524911
pair_coeff 3 15 0.045826 2.979094
pair_coeff 4 4 0.070000 3.550000
pair_coeff 4 5 0.070000 3.550000
pair_coeff 4 6 0.070000 3.550000
pair_coeff 4 7 0.070000 3.550000
pair_coeff 4 8 0.070000 3.550000
pair_coeff 4 9 0.121244 3.241605
pair_coeff 4 10 0.067971 3.524911
pair_coeff 4 11 0.045826 2.931041
pair_coeff 4 12 0.045826 2.931041
pair_coeff 4 13 0.067971 3.524911
pair_coeff 4 14 0.067971 3.524911
pair_coeff 4 15 0.045826 2.979094
pair_coeff 5 5 0.070000 3.550000
pair_coeff 5 6 0.070000 3.550000
pair_coeff 5 7 0.070000 3.550000
pair_coeff 5 8 0.070000 3.550000
pair_coeff 5 9 0.121244 3.241605
pair_coeff 5 10 0.067971 3.524911
pair_coeff 5 11 0.045826 2.931041
pair_coeff 5 12 0.045826 2.931041
pair_coeff 5 13 0.067971 3.524911
pair_coeff 5 14 0.067971 3.524911
pair_coeff 5 15 0.045826 2.979094
pair_coeff 6 6 0.070000 3.550000
pair_coeff 6 7 0.070000 3.550000
pair_coeff 6 8 0.070000 3.550000
pair_coeff 6 9 0.121244 3.241605
pair_coeff 6 10 0.067971 3.524911
pair_coeff 6 11 0.045826 2.931041
pair_coeff 6 12 0.045826 2.931041
pair_coeff 6 13 0.067971 3.524911
pair_coeff 6 14 0.067971 3.524911
pair_coeff 6 15 0.045826 2.979094
pair_coeff 7 7 0.070000 3.550000
pair_coeff 7 8 0.070000 3.550000
pair_coeff 7 9 0.121244 3.241605
pair_coeff 7 10 0.067971 3.524911
pair_coeff 7 11 0.045826 2.931041
pair_coeff 7 12 0.045826 2.931041
pair_coeff 7 13 0.067971 3.524911
pair_coeff 7 14 0.067971 3.524911
pair_coeff 7 15 0.045826 2.979094
pair_coeff 8 8 0.070000 3.550000
pair_coeff 8 9 0.121244 3.241605
pair_coeff 8 10 0.067971 3.524911
pair_coeff 8 11 0.045826 2.931041
pair_coeff 8 12 0.045826 2.931041
pair_coeff 8 13 0.067971 3.524911
pair_coeff 8 14 0.067971 3.524911
pair_coeff 8 15 0.045826 2.979094
pair_coeff 9 9 0.210000 2.960000
pair_coeff 9 10 0.117729 3.218695
pair_coeff 9 11 0.079373 2.676416
pair_coeff 9 12 0.079373 2.676416
pair_coeff 9 13 0.117729 3.218695
pair_coeff 9 14 0.117729 3.218695
pair_coeff 9 15 0.079373 2.720294
pair_coeff 10 10 0.066000 3.500000
pair_coeff 10 11 0.044497 2.910326
pair_coeff 10 12 0.044497 2.910326
pair_coeff 10 13 0.066000 3.500000
pair_coeff 10 14 0.066000 3.500000
pair_coeff 10 15 0.044497 2.958040
pair_coeff 11 11 0.030000 2.420000
pair_coeff 11 12 0.030000 2.420000
pair_coeff 11 13 0.044497 2.910326
pair_coeff 11 14 0.044497 2.910326
pair_coeff 11 15 0.030000 2.459675
pair_coeff 12 12 0.030000 2.420000
pair_coeff 12 13 0.044497 2.910326
pair_coeff 12 14 0.044497 2.910326
pair_coeff 12 15 0.030000 2.459675
pair_coeff 13 13 0.066000 3.500000
pair_coeff 13 14 0.066000 3.500000
pair_coeff 13 15 0.044497 2.958040
pair_coeff 14 14 0.066000 3.500000
pair_coeff 14 15 0.044497 2.958040
pair_coeff 15 15 0.030000 2.500000

#Stretching Interactions
#bond_coeff bondtype k (kcal/mol ang^-2) R0 (ang)
bond_coeff 1 490.0 1.4090
bond_coeff 2 337.0 1.4970
bond_coeff 3 400.0 1.4840
bond_coeff 4 570.0 1.2250
bond_coeff 5 469.0 1.3850
bond_coeff 6 469.0 1.4140
bond_coeff 7 469.0 1.3990
bond_coeff 8 367.0 1.0830
bond_coeff 9 469.0 1.3960
bond_coeff 10 367.0 1.0830
bond_coeff 11 469.0 1.4700
bond_coeff 12 469.0 1.4310
bond_coeff 13 469.0 1.4290
bond_coeff 14 268.0 1.5290
bond_coeff 15 340.0 1.0900
bond_coeff 16 268.0 1.5290
bond_coeff 17 340.0 1.0900
bond_coeff 18 268.0 1.5290
bond_coeff 19 340.0 1.0900

#Standard 3-body bending interactions
#angle_coeff angletype k (kcal/mol rad^-2) Theta_0 (degrees)
angle_coeff 1 70.0 123.800
angle_coeff 2 50.0 117.000
angle_coeff 3 70.0 117.300
angle_coeff 4 80.0 121.400
angle_coeff 5 80.0 121.300
angle_coeff 6 85.0 119.300
angle_coeff 7 85.0 121.100
angle_coeff 8 63.0 119.600
angle_coeff 9 63.0 120.400
angle_coeff 10 35.0 118.700
angle_coeff 11 35.0 120.900
angle_coeff 12 63.0 121.900
angle_coeff 13 35.0 117.800
angle_coeff 14 35.0 120.200
angle_coeff 15 63.0 122.400
angle_coeff 16 63.0 118.500
angle_coeff 17 63.0 119.100
angle_coeff 18 63.0 121.800
angle_coeff 19 63.0 119.100
angle_coeff 20 63.0 119.300
angle_coeff 21 63.0 120.400
angle_coeff 22 80.0 111.700
angle_coeff 23 35.0 103.100
angle_coeff 24 58.35 112.700
angle_coeff 25 37.5 110.700
angle_coeff 26 58.35 112.700
angle_coeff 27 37.5 110.700
angle_coeff 28 37.5 110.700
angle_coeff 29 33.0 107.800
angle_coeff 30 58.35 112.700
angle_coeff 31 58.35 112.700
angle_coeff 32 37.5 110.700
angle_coeff 33 37.5 110.700
angle_coeff 34 33.0 107.800

#Dihedral twisting interactions
#dihedral_coeff dihedral_type V1 V2 V3 V4
dihedral_coeff 1 0 7.250 0 0
dihedral_coeff 2 0 2.100 0 0
dihedral_coeff 3 0 7.250 0 0
dihedral_coeff 4 0 2.100 0 0
dihedral_coeff 5 0 0 0 0
dihedral_coeff 6 0 0 0 0
dihedral_coeff 7 0 7.250 0 0
dihedral_coeff 8 0 7.250 0 0
dihedral_coeff 9 0 2.100 0 0
dihedral_coeff 10 0 2.100 0 0
dihedral_coeff 11 0 7.250 0 0
dihedral_coeff 12 0 7.250 0 0
dihedral_coeff 13 0 7.250 0 0
dihedral_coeff 14 0 7.250 0 0
dihedral_coeff 15 0 7.250 0 0
dihedral_coeff 16 0 7.250 0 0
dihedral_coeff 17 0 7.250 0 0
dihedral_coeff 18 0 7.250 0 0
dihedral_coeff 19 0 7.250 0 0
dihedral_coeff 20 0 7.250 0 0
dihedral_coeff 21 0 7.250 0 0
dihedral_coeff 22 0 7.250 0 0
dihedral_coeff 23 0 7.250 0 0
dihedral_coeff 24 0 7.250 0 0
dihedral_coeff 25 0 7.250 0 0
dihedral_coeff 26 0 7.250 0 0
dihedral_coeff 27 0 7.250 0 0
dihedral_coeff 28 0 7.250 0 0
dihedral_coeff 29 0 7.250 0 0
dihedral_coeff 30 0 7.250 0 0
dihedral_coeff 31 0 7.250 0 0
dihedral_coeff 32 0 7.250 0 0
dihedral_coeff 33 0 7.250 0 0
dihedral_coeff 34 0 7.250 0 0
dihedral_coeff 35 0.845 -0.962 0.713 0
dihedral_coeff 36 0 0 0.464 0
dihedral_coeff 37 1.300 -0.050 0.200 0
dihedral_coeff 38 0 0 0.300 0
dihedral_coeff 39 0 0 0.300 0
dihedral_coeff 40 0 0 0.300 0
dihedral_coeff 41 1.300 -0.050 0.200 0
dihedral_coeff 42 0 0 0.300 0
dihedral_coeff 43 0 0 0.300 0
dihedral_coeff 44 0 0 0.300 0
dihedral_coeff 45 1.300 -0.050 0.200 0
dihedral_coeff 46 1.300 -0.050 0.200 0
dihedral_coeff 47 0 0 0.300 0
dihedral_coeff 48 0 0 0.300 0
dihedral_coeff 49 0 0 0.300 0

#Improper interactions
#improper_coeff improper_type PARAMS
improper_coeff 1 	 1.2085 -1 2
improper_coeff 2 	 1.2085 -1 2
improper_coeff 3 	 1.2085 -1 2
