units 		 lj 
atom_style 		 full 
pair_style 		 lj/cut/coul/long 10.0 8.0 
bond_style 		 harmonic 
angle_style 		 harmonic 
boundary 		 p p f 
neighbor 		 0.5 bin 
neigh_modify 		 every 1 delay 3 check yes 
kspace_style 		 pppm   0.0001 
kspace_modify 		 slab   3.0 
pair_modify 		 mix arithmetic 
dielectric 		 80.0 

