units 		 lj 
atom_style 		 full 
pair_style 		 lj/cut/coul/long 4.0 10.0 
bond_style 		 fene 
angle_style 		 cosine/delta 
boundary 		 p p f 
neighbor 		 0.5 bin 
neigh_modify 		 every 1 delay 3 check yes 
kspace_style 		 pppm   0.0001 
kspace_modify 		 slab   3.0 
pair_modify 		 mix arithmetic 
special_bonds 		 fene 

