units		lj	
atom_style	full	#select column format for Atoms section
pair_style	lj/cut/coul/long 10.0 8.0     #cutoffLJ	cutoff_coulomb
bond_style 	harmonic
angle_style	harmonic
dihedral_style	opls
improper_style	cvff
kspace_style	pppm	0.0001	#long-range electrostatics method
pair_modify	mix arithmetic	#using Lorenz-Berthelot mixing rules
special_bonds lj/coul 0.0 0.0 0.5	#scale factors necessary for 1-2,1-3,1-4 interactions
